50 20951
5627 3357 3831 2750 6093 10799 9574 3947 4215 8353 6933 8872 6056 2505 3127 5731 3952 7294 9333 6546 6351 8422 4934 1066 3735 4298 8103 5201 10848 10454 4808 5499 9320 9117 4483 9681 9780 10186 10953 3825 7016 8433 2955 4254 2095 9299 2178 6503 3416 8400 
4627 2357 2831 1750 5093 9799 8574 2947 3215 7353 5933 7872 5056 1505 2127 4731 2952 6294 8333 5546 5351 7422 3934 66 2735 3298 7103 4201 9848 9454 3808 4499 8320 8117 3483 8681 8780 9186 9953 2825 6016 7433 1955 3254 1095 8299 1178 5503 2416 7400 
